4392
4304
4320
4389
4380
4374
4365
4387
4329
4393
4276
4343
4392
4314
4370
4267
4457
4316
4380
4385
4351
4368
4348
4390
4388
4376
4333
4372
4372
4325
4394
4353
4381
4355
4272
4318
4360
4322
4419
4382
4405
4359
4329
4409
4416
4364
4412
4331
4368
4373
4315
4316
4421
4283
4387
4388
4372
4381
4282
4386
4352
4365
4334
4321
4427
4295
4364
4375
4336
4395
4413
4355
4324
4411
4369
4390
4366
4367
4414
4302
4367
4396
4354
4371
4346
4397
4341
4398
4374
4408
4333
4307
4363
4327
4288
4429
4376
4370
4339
4391
